
Gurobi 12.0.2 (win64) logging started Wed May 21 23:01:13 2025

Set parameter LogFile to value "instancias/Teste\I_6_2_S_1-9_3.log"
Gurobi Optimizer version 12.0.2 build v12.0.2rc0 (win64 - Windows 11.0 (26100.2))

CPU model: 11th Gen Intel(R) Core(TM) i3-1115G4 @ 3.00GHz, instruction set [SSE2|AVX|AVX2|AVX512]
Thread count: 2 physical cores, 4 logical processors, using up to 4 threads

Non-default parameters:
TimeLimit  300

Optimize a model with 172 rows, 87 columns and 758 nonzeros
Model fingerprint: 0xcde23aa0
Variable types: 15 continuous, 72 integer (0 binary)
Coefficient statistics:
  Matrix range     [1e+00, 1e+03]
  Objective range  [1e+00, 1e+00]
  Bounds range     [1e+00, 1e+00]
  RHS range        [1e+00, 1e+03]
Presolve removed 14 rows and 2 columns
Presolve time: 0.00s
Presolved: 158 rows, 85 columns, 732 nonzeros
Variable types: 13 continuous, 72 integer (72 binary)
Found heuristic solution: objective 229.0000000
Found heuristic solution: objective 204.0000000
Found heuristic solution: objective 141.0000000

Root relaxation: objective 0.000000e+00, 52 iterations, 0.00 seconds (0.00 work units)

    Nodes    |    Current Node    |     Objective Bounds      |     Work
 Expl Unexpl |  Obj  Depth IntInf | Incumbent    BestBd   Gap | It/Node Time

     0     0    0.00000    0   14  141.00000    0.00000   100%     -    0s
     0     0    0.00000    0   16  141.00000    0.00000   100%     -    0s
     0     0    0.00000    0   12  141.00000    0.00000   100%     -    0s
H    0     0                     137.0000000    0.00000   100%     -    0s
H    0     0                     120.0000000    0.00000   100%     -    0s
     0     0    0.00000    0   21  120.00000    0.00000   100%     -    0s
     0     0    0.00000    0   12  120.00000    0.00000   100%     -    0s
     0     0    1.30168    0   32  120.00000    1.30168  98.9%     -    0s
     0     0    5.12679    0   26  120.00000    5.12679  95.7%     -    0s
     0     0    7.01583    0   28  120.00000    7.01583  94.2%     -    0s
     0     0    7.01583    0   28  120.00000    7.01583  94.2%     -    0s
     0     0   61.10283    0   10  120.00000   61.10283  49.1%     -    0s
     0     0   64.64502    0   12  120.00000   64.64502  46.1%     -    0s
     0     0   69.00000    0    9  120.00000   69.00000  42.5%     -    0s
     0     0   69.00000    0    9  120.00000   69.00000  42.5%     -    0s
     0     0   69.00000    0   12  120.00000   69.00000  42.5%     -    0s
     0     0   69.00000    0   13  120.00000   69.00000  42.5%     -    0s
     0     0   69.00000    0    8  120.00000   69.00000  42.5%     -    0s
     0     0   69.00000    0   11  120.00000   69.00000  42.5%     -    0s
     0     0   69.00000    0    8  120.00000   69.00000  42.5%     -    0s
     0     0   69.00000    0    8  120.00000   69.00000  42.5%     -    0s
     0     0   70.00000    0   11  120.00000   70.00000  41.7%     -    0s
     0     0   70.00000    0   14  120.00000   70.00000  41.7%     -    0s
     0     0   70.00000    0    8  120.00000   70.00000  41.7%     -    0s
     0     0   70.00000    0    6  120.00000   70.00000  41.7%     -    0s
     0     0   70.00000    0    6  120.00000   70.00000  41.7%     -    0s
     0     0   70.00000    0   26  120.00000   70.00000  41.7%     -    0s
     0     0   70.00000    0   22  120.00000   70.00000  41.7%     -    0s
     0     2   70.00000    0   22  120.00000   70.00000  41.7%     -    0s

Cutting planes:
  Cover: 2
  Implied bound: 4
  MIR: 21
  Zero half: 1
  Relax-and-lift: 7

Explored 547 nodes (4284 simplex iterations) in 0.39 seconds (0.09 work units)
Thread count was 4 (of 4 available processors)

Solution count 5: 120 137 141 ... 229

Optimal solution found (tolerance 1.00e-04)
Best objective 1.200000000000e+02, best bound 1.200000000000e+02, gap 0.0000%

Gurobi 12.0.2 (win64) logging started Thu May 22 08:50:44 2025

Set parameter LogFile to value "instancias/Teste\I_6_2_S_1-9_3.log"
Gurobi Optimizer version 12.0.2 build v12.0.2rc0 (win64 - Windows 11.0 (26100.2))

CPU model: 11th Gen Intel(R) Core(TM) i3-1115G4 @ 3.00GHz, instruction set [SSE2|AVX|AVX2|AVX512]
Thread count: 2 physical cores, 4 logical processors, using up to 4 threads

Non-default parameters:
TimeLimit  300

Optimize a model with 172 rows, 87 columns and 758 nonzeros
Model fingerprint: 0xcde23aa0
Variable types: 15 continuous, 72 integer (0 binary)
Coefficient statistics:
  Matrix range     [1e+00, 1e+03]
  Objective range  [1e+00, 1e+00]
  Bounds range     [1e+00, 1e+00]
  RHS range        [1e+00, 1e+03]
Presolve removed 14 rows and 2 columns
Presolve time: 0.01s
Presolved: 158 rows, 85 columns, 732 nonzeros
Variable types: 13 continuous, 72 integer (72 binary)
Found heuristic solution: objective 229.0000000
Found heuristic solution: objective 204.0000000
Found heuristic solution: objective 141.0000000

Root relaxation: objective 0.000000e+00, 52 iterations, 0.00 seconds (0.00 work units)

    Nodes    |    Current Node    |     Objective Bounds      |     Work
 Expl Unexpl |  Obj  Depth IntInf | Incumbent    BestBd   Gap | It/Node Time

     0     0    0.00000    0   14  141.00000    0.00000   100%     -    0s
     0     0    0.00000    0   16  141.00000    0.00000   100%     -    0s
     0     0    0.00000    0   12  141.00000    0.00000   100%     -    0s
H    0     0                     137.0000000    0.00000   100%     -    0s
H    0     0                     120.0000000    0.00000   100%     -    0s
     0     0    0.00000    0   21  120.00000    0.00000   100%     -    0s
     0     0    0.00000    0   12  120.00000    0.00000   100%     -    0s
     0     0    1.30168    0   32  120.00000    1.30168  98.9%     -    0s
     0     0    5.12679    0   26  120.00000    5.12679  95.7%     -    0s
     0     0    7.01583    0   28  120.00000    7.01583  94.2%     -    0s
     0     0    7.01583    0   28  120.00000    7.01583  94.2%     -    0s
     0     0   61.10283    0   10  120.00000   61.10283  49.1%     -    0s
     0     0   64.64502    0   12  120.00000   64.64502  46.1%     -    0s
     0     0   69.00000    0    9  120.00000   69.00000  42.5%     -    0s
     0     0   69.00000    0    9  120.00000   69.00000  42.5%     -    0s
     0     0   69.00000    0   12  120.00000   69.00000  42.5%     -    0s
     0     0   69.00000    0   13  120.00000   69.00000  42.5%     -    0s
     0     0   69.00000    0    8  120.00000   69.00000  42.5%     -    0s
     0     0   69.00000    0   11  120.00000   69.00000  42.5%     -    0s
     0     0   69.00000    0    8  120.00000   69.00000  42.5%     -    0s
     0     0   69.00000    0    8  120.00000   69.00000  42.5%     -    0s
     0     0   70.00000    0   11  120.00000   70.00000  41.7%     -    0s
     0     0   70.00000    0   14  120.00000   70.00000  41.7%     -    0s
     0     0   70.00000    0    8  120.00000   70.00000  41.7%     -    0s
     0     0   70.00000    0    6  120.00000   70.00000  41.7%     -    0s
     0     0   70.00000    0    6  120.00000   70.00000  41.7%     -    0s
     0     0   70.00000    0   26  120.00000   70.00000  41.7%     -    0s
     0     0   70.00000    0   22  120.00000   70.00000  41.7%     -    0s
     0     2   70.00000    0   22  120.00000   70.00000  41.7%     -    0s

Cutting planes:
  Cover: 2
  Implied bound: 4
  MIR: 21
  Zero half: 1
  Relax-and-lift: 7

Explored 547 nodes (4284 simplex iterations) in 1.51 seconds (0.09 work units)
Thread count was 4 (of 4 available processors)

Solution count 5: 120 137 141 ... 229

Optimal solution found (tolerance 1.00e-04)
Best objective 1.200000000000e+02, best bound 1.200000000000e+02, gap 0.0000%
